certificates/rado_a11_c216_N27.cnf
c Rad2 upper bound instance: x1 + 11*x2 - x3 = 216, interval [1,27]
p cnf 27 128
1 5 20 0
-1 -5 -20 0
1 16 21 0
-1 -16 -21 0
1 22 27 0
-1 -22 -27 0
2 6 20 0
-2 -6 -20 0
2 17 21 0
-2 -17 -21 0
3 7 20 0
-3 -7 -20 0
3 18 21 0
-3 -18 -21 0
4 8 20 0
-4 -8 -20 0
4 19 21 0
-4 -19 -21 0
5 9 20 0
-5 -9 -20 0
5 20 21 0
-5 -20 -21 0
6 10 20 0
-6 -10 -20 0
6 21 0
-6 -21 0
7 11 20 0
-7 -11 -20 0
7 21 22 0
-7 -21 -22 0
1 8 19 0
-1 -8 -19 0
8 12 20 0
-8 -12 -20 0
8 21 23 0
-8 -21 -23 0
2 9 19 0
-2 -9 -19 0
9 13 20 0
-9 -13 -20 0
9 21 24 0
-9 -21 -24 0
3 10 19 0
-3 -10 -19 0
10 14 20 0
-10 -14 -20 0
10 21 25 0
-10 -21 -25 0
4 11 19 0
-4 -11 -19 0
11 15 20 0
-11 -15 -20 0
11 21 26 0
-11 -21 -26 0
5 12 19 0
-5 -12 -19 0
12 16 20 0
-12 -16 -20 0
12 21 27 0
-12 -21 -27 0
6 13 19 0
-6 -13 -19 0
13 17 20 0
-13 -17 -20 0
7 14 19 0
-7 -14 -19 0
14 18 20 0
-14 -18 -20 0
8 15 19 0
-8 -15 -19 0
15 19 20 0
-15 -19 -20 0
9 16 19 0
-9 -16 -19 0
16 20 0
-16 -20 0
10 17 19 0
-10 -17 -19 0
17 20 21 0
-17 -20 -21 0
11 18 19 0
-11 -18 -19 0
18 20 22 0
-18 -20 -22 0
1 18 19 0
-1 -18 -19 0
12 19 0
-12 -19 0
19 20 23 0
-19 -20 -23 0
2 18 20 0
-2 -18 -20 0
13 19 20 0
-13 -19 -20 0
20 24 0
-20 -24 0
14 19 21 0
-14 -19 -21 0
20 21 25 0
-20 -21 -25 0
4 18 22 0
-4 -18 -22 0
15 19 22 0
-15 -19 -22 0
20 22 26 0
-20 -22 -26 0
5 18 23 0
-5 -18 -23 0
16 19 23 0
-16 -19 -23 0
20 23 27 0
-20 -23 -27 0
6 18 24 0
-6 -18 -24 0
17 19 24 0
-17 -19 -24 0
7 18 25 0
-7 -18 -25 0
18 19 25 0
-18 -19 -25 0
8 18 26 0
-8 -18 -26 0
19 26 0
-19 -26 0
9 18 27 0
-9 -18 -27 0
19 20 27 0
-19 -20 -27 0
