certificates/rado_a11_c216_N27.drat
-24 19 -27 0
19 -27 0
d -24 19 -27 0
-27 0
20 0
-16 0
-24 0
-19 0
12 0
26 0
23 0
9 0
17 0
-8 0
-22 0
-5 0
-13 0
-21 0
1 0
15 0
7 0
6 0
4 0
14 0
-11 0
-3 0
-2 0
-10 0
-18 0
0
